unsat
( _c0
  _c1
  _c10
  _c11
  _c118
  _c12
  _c13
  _c138
  _c139
  _c14
  _c144
  _c145
  _c161
  _c162
  _c163
  _c164
  _c17
  _c172
  _c173
  _c177
  _c179
  _c18
  _c183
  _c187
  _c192
  _c193
  _c2
  _c20
  _c204
  _c208
  _c21
  _c217
  _c219
  _c22
  _c224
  _c234
  _c243
  _c248
  _c254
  _c267
  _c3
  _c301
  _c306
  _c307
  _c31
  _c311
  _c312
  _c313
  _c317
  _c32
  _c33
  _c34
  _c342
  _c343
  _c344
  _c345
  _c346
  _c35
  _c350
  _c351
  _c354
  _c356
  _c357
  _c361
  _c366
  _c367
  _c368
  _c369
  _c370
  _c371
  _c372
  _c373
  _c374
  _c377
  _c378
  _c380
  _c381
  _c382
  _c390
  _c393
  _c394
  _c395
  _c396
  _c397
  _c401
  _c402
  _c403
  _c405
  _c406
  _c408
  _c411
  _c412
  _c413
  _c415
  _c419
  _c420
  _c421
  _c424
  _c425
  _c426
  _c428
  _c431
  _c433
  _c436
  _c438
  _c439
  _c444
  _c445
  _c446
  _c451
  _c468
  _c471
  _c493
  _c496
  _c5
  _c518
  _c519
  _c543
  _c56
  _c568
  _c569
  _c570
  _c589
  _c592
  _c593
  _c594
  _c595
  _c596
  _c6
  _c602
  _c603
  _c604
  _c605
  _c606
  _c607
  _c608
  _c609
  _c610
  _c65
  _c7
  _c78
  _c8
  _c88
  _c89
  _c9 )
